p cnf 2950 2689
c ind 1537 1538 1539 1540 1541 1542 1543 1544 1545 1546 0
c ind 1547 1548 1549 1550 1551 1552 1553 1554 1555 1556 0
c ind 1557 1558 1559 1560 1561 1562 1563 1564 1565 1566 0
c ind 1567 1568 1569 1570 1571 1572 1573 1574 1575 1576 0
c ind 1577 1578 1579 1580 1581 1582 1583 1584 1585 1586 0
c ind 1587 1588 1589 1590 1591 1592 1593 1594 1595 1596 0
c ind 1597 1598 1599 1600 1601 1602 1603 1604 1605 1606 0
c ind 1607 1608 1609 1610 1611 1612 1613 1614 1615 1616 0
c ind 1617 931 1618 1313 1314 1619 1265 1620 1266 1621 0
c ind 1267 1268 1269 1270 1271 1272 1273 1274 1275 1276 0
c ind 1277 1278 1279 1280 1281 1622 1623 1282 1283 1624 0
c ind 1625 1284 1285 1286 1287 1288 1626 1289 1290 1291 0
c ind 1292 1293 1294 1627 1295 1296 1628 1297 1298 1299 0
c ind 1629 1534 1630 1300 1301 1302 1303 1304 1305 1306 0
c ind 1631 1307 1308 1309 1632 1633 1310 1002 1003 1004 0
c ind 1634 1635 1005 1006 1007 1008 1009 1010 1011 1012 0
c ind 1013 1014 1015 1016 1017 1018 1636 1019 1637 1020 0
c ind 1021 1022 1638 1023 1639 1024 932 933 934 935 0
c ind 936 937 1640 938 1000 939 940 941 1641 942 0
c ind 1642 943 944 945 1643 1644 946 947 948 949 0
c ind 950 951 952 953 954 1645 1646 1197 1198 1199 0
c ind 1200 1201 1647 1202 1203 1204 1205 1206 1207 1208 0
c ind 1209 1210 1648 1211 1212 1213 1649 1214 1650 1215 0
c ind 1216 1651 1217 1218 1652 1219 1164 1001 1165 1166 0
c ind 1167 1168 1169 1170 1171 1172 1173 1174 1175 1176 0
c ind 1177 1178 1179 1180 1181 1182 1183 1184 1185 1186 0
c ind 1187 1188 1189 1190 1191 1192 1193 1194 1195 1196 0
c ind 1220 1221 1222 1223 1224 1225 1226 1227 1228 1229 0
c ind 1230 1231 1232 1233 1234 1235 1236 1237 1238 1239 0
c ind 1240 1241 1242 1243 1244 1245 1246 1247 1248 1249 0
c ind 1250 1251 1252 1253 1254 1255 1256 1257 1258 1311 0
c ind 1259 1260 1261 1262 1263 1264 955 956 957 958 0
c ind 959 960 961 962 963 964 965 966 967 968 0
c ind 969 970 971 972 973 974 975 976 977 978 0
c ind 979 980 981 982 983 984 985 986 987 1312 0
c ind 988 989 990 991 992 993 994 995 996 997 0
c ind 998 999 1315 1316 1317 1318 1319 1320 1321 1322 0
c ind 1323 1324 1325 1326 1327 1328 1329 1330 1331 1332 0
c ind 1333 1334 1335 1336 1337 1338 1339 1340 1341 1342 0
c ind 1343 1344 1345 1346 1347 1348 1349 1350 1351 1352 0
c ind 1353 1354 1355 1356 1357 1358 1359 1360 1361 1362 0
c ind 1363 1364 1365 1366 1367 1368 1369 1370 1371 1535 0
c ind 1536 0
788 -789 -887 0
788 -789 898 0
788 -789 815 0
-788 789 0
-815 887 -788 -898 0
789 -790 -804 -814 0
-789 790 0
-789 804 0
-789 814 0
790 791 -795 0
-790 -791 0
-790 795 0
-792 -1289 791 0
-794 -1289 791 0
-793 -1289 791 0
-791 1289 0
-791 792 793 794 0
792 -1295 1296 1297 0
-792 1295 0
-792 -1297 0
-792 -1296 0
793 1295 1298 1299 0
-793 -1295 0
-793 -1299 0
-793 -1298 0
794 -1290 1291 1292 0
-794 1290 0
-794 -1292 0
-794 -1291 0
795 796 800 -941 -1006 0
-795 1006 0
-795 -800 0
-795 941 0
-795 -796 0
797 1007 796 1008 1009 0
-796 -797 0
-796 -1009 0
-796 -1007 0
-796 -1008 0
797 798 -1012 0
797 798 799 -1013 0
-797 -798 0
-797 -799 1012 0
-797 1012 1013 0
798 1010 -1011 0
-798 -1010 0
-798 1011 0
799 1018 1019 0
799 933 934 1018 0
-799 -1018 0
-799 -934 -1019 0
-799 -933 -1019 0
801 942 800 943 944 0
-800 -801 0
-800 -944 0
-800 -942 0
-800 -943 0
801 802 -947 0
801 802 803 -948 0
-801 -802 0
-801 -803 947 0
-801 947 948 0
802 945 -946 0
-802 -945 0
-802 946 0
803 953 954 0
803 953 1203 1204 0
-803 -953 0
-803 -954 -1203 0
-803 -954 -1204 0
804 -807 1260 0
804 -807 957 0
804 805 -807 0
-804 807 0
-805 -957 -804 -1260 0
805 -806 -958 959 0
-805 958 0
-805 -959 0
-805 806 0
806 961 -962 -963 964 0
-806 -961 0
-806 -964 0
-806 963 0
-806 962 0
807 808 -811 813 0
807 808 -811 931 0
-807 811 0
-807 -808 0
-813 -931 -807 0
-809 -810 808 -1249 0
-809 -810 808 -1250 0
-808 810 0
-808 809 0
-808 1249 1250 0
809 1252 1253 1254 1255 0
-809 -1255 0
-809 -1254 0
-809 -1252 0
-809 -1253 0
810 -1246 -1247 -1248 1251 0
-810 1248 0
-810 -1251 0
-810 1246 0
-810 1247 0
811 -812 -1359 -1551 -1580 0
-811 812 0
-811 1359 0
-811 1580 0
-811 1551 0
812 -986 -1330 0
-812 986 0
-812 1330 0
813 1195 1196 1220 0
-813 -1195 0
-813 -1220 0
-813 -1196 0
814 -1001 -1311 0
814 -1000 1312 0
814 -1000 -1311 0
814 -1001 1312 0
1311 -1312 -814 0
1000 1001 -814 0
815 -816 -848 0
-815 816 0
-815 848 0
816 -837 -1528 0
816 817 -837 0
-816 837 0
-816 -817 1528 0
817 833 -811 0
817 818 -811 -822 0
811 -817 0
-817 -818 -833 0
-817 822 -833 0
818 820 931 -1239 0
818 819 931 1239 0
-818 -931 0
-818 -820 -1239 0
-818 -819 1239 0
819 -1631 -790 0
-819 1631 0
790 -819 0
820 -821 -1632 0
-819 820 821 0
-820 -821 1632 0
819 -820 821 0
821 1182 -1184 0
-821 -1182 0
-821 1184 0
822 825 -826 0
-820 822 -823 -826 0
-822 826 0
-822 823 -825 0
820 -822 -825 0
823 824 -1195 0
823 824 -1196 0
823 824 -1220 0
-823 -824 0
-823 1195 1196 1220 0
824 1226 -1228 0
-824 -1226 0
-824 1228 0
824 825 -931 0
825 -931 1633 0
-825 931 0
-824 -825 -1633 0
826 827 808 0
-808 -826 0
-826 -827 0
827 -828 -1260 0
827 829 -1260 0
-827 1260 0
-827 828 -829 0
828 -955 1263 0
-828 955 0
-828 -1263 0
829 831 957 0
829 830 -957 0
829 -832 -957 0
-829 -831 957 0
-829 -830 832 -957 0
830 -958 959 0
-830 958 0
-830 -959 0
831 981 -983 0
-831 -981 0
-831 983 0
806 832 -1260 0
-832 1260 0
-806 -832 0
831 833 835 0
833 834 835 0
833 835 1635 0
-833 -835 0
-831 -833 -834 -1635 0
834 957 -1260 0
-834 -957 0
-834 1260 0
-828 835 -836 -1634 0
-835 1634 0
828 -835 0
-835 836 0
-829 836 -1260 0
-836 1260 0
829 -836 0
837 -838 -1658 0
837 838 1658 0
-837 -838 1658 0
-837 838 -1658 0
838 -839 -811 0
838 846 -811 0
811 -838 0
-838 839 -846 0
831 -834 839 -840 0
-831 -834 839 -1621 0
834 -839 0
831 -839 840 0
-831 -839 1621 0
-828 840 -1620 0
828 840 -841 0
-828 -840 1620 0
828 -840 841 0
841 844 808 0
841 -842 -790 808 0
-808 -841 0
790 -841 -844 0
-841 842 -844 0
842 843 931 -1312 0
-823 842 843 -1312 0
-842 1312 0
-842 -843 0
823 -842 -931 0
-821 843 -1239 0
-821 843 -931 0
821 -843 0
-843 931 1239 0
844 845 1619 0
824 844 845 0
844 845 931 0
-844 -845 0
-824 -844 -931 -1619 0
-843 845 931 -1618 0
-823 -843 845 -1618 0
843 -845 0
-845 1618 0
823 -845 -931 0
846 847 -1260 0
840 841 846 0
841 846 847 0
840 846 -1260 0
-841 -846 1260 0
-840 -846 -847 0
805 847 -957 -1260 0
-847 957 0
-847 1260 0
-805 -847 0
848 -849 879 1731 0
848 -849 -879 -1731 0
-848 849 0
-848 879 -1731 0
-848 -879 1731 0
-817 849 -850 0
849 -850 1528 0
-849 850 0
817 -849 -1528 0
850 -878 -851 1508 0
850 878 -851 -1508 0
-850 851 0
-850 -878 -1508 0
-850 878 1508 0
851 859 860 -868 0
851 -852 860 -868 0
-851 868 0
-851 -860 0
852 -859 -851 0
831 -834 852 -853 0
-831 -834 852 -1625 0
834 -852 0
831 -852 853 0
-831 -852 1625 0
-828 853 -1624 0
828 853 -854 0
-828 -853 1624 0
828 -853 854 0
854 855 808 858 0
854 855 808 -857 0
-808 -854 0
-854 -855 0
-854 857 -858 0
855 856 931 -1239 0
790 855 931 1239 0
-855 -931 0
-855 -856 -1239 0
-855 1239 -790 0
821 856 -790 0
-821 856 -1622 0
790 821 -856 0
-821 -856 1622 0
-823 -856 857 0
823 -857 0
856 -857 0
824 858 -931 0
858 -931 1623 0
-858 931 0
-824 -858 -1623 0
853 859 -1260 0
847 854 859 0
853 854 859 0
847 859 -1260 0
-847 -853 -859 0
-854 -859 1260 0
862 1260 860 0
828 861 860 862 0
-860 -862 0
-860 -861 -1260 0
-828 -860 -1260 0
-831 861 957 -1639 0
831 -861 0
-861 1639 0
-861 -957 0
862 863 808 867 0
862 863 808 -866 0
-808 -862 0
-862 -863 0
-862 866 -867 0
863 865 931 -1239 0
863 864 931 1239 0
-863 -931 0
-863 -865 -1239 0
-863 -864 1239 0
864 -1311 -790 0
-864 1311 0
790 -864 0
-821 865 -1636 0
821 -864 865 0
-821 -865 1636 0
821 864 -865 0
-823 -865 866 0
823 -866 0
865 -866 0
824 867 -931 0
867 -931 1637 0
-867 931 0
-824 -867 -1637 0
868 -869 -871 -876 0
868 869 -873 -876 0
-868 876 0
-869 871 -868 0
869 873 -868 0
869 870 1216 0
869 -931 1216 0
869 1216 -1239 0
-869 -1216 0
-869 -870 931 1239 0
870 1240 1241 1242 1243 0
-870 -1243 0
-870 -1242 0
-870 -1240 0
-870 -1241 0
871 -1617 -1647 0
871 872 -1647 0
-871 1647 0
-871 -872 1617 0
872 -1609 -795 1611 0
-872 1609 0
-872 -1611 0
795 -872 0
873 875 -795 -1615 0
873 874 -795 875 0
795 -873 0
-873 -875 0
-873 -874 1615 0
874 -1609 1611 0
-874 1609 0
-874 -1611 0
-791 875 1609 0
875 1268 1609 1646 0
-875 -1609 0
-875 -1268 791 0
-875 -1646 791 0
-861 876 -804 0
827 876 -804 0
876 -877 -804 0
804 -876 0
-827 861 -876 877 0
-829 877 -1638 0
-877 1638 0
829 -877 0
-872 878 -804 0
804 -878 0
872 -878 0
879 885 -811 0
879 880 -811 -883 0
811 -879 0
-879 -880 -885 0
-879 883 -885 0
880 882 931 -1239 0
880 881 931 1239 0
-880 -931 0
-880 -882 -1239 0
-880 -881 1239 0
881 -1640 -790 0
-881 1640 0
790 -881 0
-821 882 -1641 0
821 -881 882 0
-821 -882 1641 0
821 881 -882 0
-826 883 884 0
-823 -826 -882 883 0
826 -883 0
823 -883 -884 0
882 -883 -884 0
824 884 -931 0
884 -931 1642 0
-884 931 0
-824 -884 -1642 0
831 885 886 0
834 885 886 0
885 886 1644 0
-885 -886 0
-831 -834 -885 -1644 0
-828 -836 886 -1643 0
-886 1643 0
828 -886 0
836 -886 0
887 -888 1739 0
887 888 -1739 0
-887 -888 -1739 0
-887 888 1739 0
888 -889 -811 0
888 897 -811 0
811 -888 0
-888 889 -897 0
831 -834 889 -890 0
-831 -834 889 -1652 0
834 -889 0
831 -889 890 0
-831 -889 1652 0
-828 890 -1651 0
828 890 -891 0
-828 -890 1651 0
828 -890 891 0
891 892 808 896 0
891 892 808 -895 0
-808 -891 0
-891 -892 0
-891 895 -896 0
892 894 931 -1239 0
892 893 931 1239 0
-892 -931 0
-892 -894 -1239 0
-892 -893 1239 0
893 -1648 -790 0
-893 1648 0
790 -893 0
-821 894 -1649 0
821 -893 894 0
-821 -894 1649 0
821 893 -894 0
-823 -894 895 0
823 -895 0
894 -895 0
824 896 -931 0
896 -931 1650 0
-896 931 0
-824 -896 -1650 0
890 897 -1260 0
847 891 897 0
890 891 897 0
847 897 -1260 0
-847 -890 -897 0
-891 -897 1260 0
898 -899 -1523 0
898 899 1523 0
-898 -899 1523 0
-898 899 -1523 0
899 -900 -811 0
899 908 -811 0
811 -899 0
-899 900 -908 0
831 -834 900 -901 0
-831 -834 900 -1630 0
834 -900 0
831 -900 901 0
-831 -900 1630 0
-828 901 -1629 0
828 901 -902 0
-828 -901 1629 0
828 -901 902 0
902 903 808 907 0
902 903 808 -906 0
-808 -902 0
-902 -903 0
-902 906 -907 0
903 905 931 -1239 0
903 904 931 1239 0
-903 -931 0
-903 -905 -1239 0
-903 -904 1239 0
904 -1626 -790 0
-904 1626 0
790 -904 0
-821 905 -1627 0
821 -904 905 0
-821 -905 1627 0
821 904 -905 0
-823 -905 906 0
823 -906 0
905 -906 0
824 907 -931 0
907 -931 1628 0
-907 931 0
-824 -907 -1628 0
901 908 -1260 0
847 902 908 0
901 902 908 0
847 908 -1260 0
-847 -901 -908 0
-902 -908 1260 0
914 -789 909 0
910 -789 909 0
789 -909 0
-909 -910 -914 0
910 -851 -911 2552 0
-888 910 -851 -911 0
-910 911 0
851 -910 0
888 -2552 -910 0
838 911 -912 -913 2471 0
-838 911 -912 -913 -2471 0
-911 913 0
838 -2471 -911 0
-911 912 0
-838 2471 -911 0
879 912 2341 2544 0
-817 -879 912 -2544 0
-879 912 2341 -2544 0
-817 879 912 2544 0
-879 2544 -912 0
879 -2544 -912 0
817 -2341 -912 0
817 -878 913 2321 0
878 913 -2321 -2341 0
-878 913 2321 -2341 0
817 878 913 -2321 0
-878 -2321 -913 0
878 2321 -913 0
-817 2341 -913 0
888 -899 914 -2336 0
899 914 2336 -2552 0
-899 914 -2336 -2552 0
888 899 914 2336 0
-899 2336 -914 0
899 -2336 -914 0
-888 2552 -914 0
-887 915 -789 0
815 915 -789 0
-899 915 -789 0
789 -915 0
-815 887 899 -915 0
-879 916 -789 0
916 917 -789 0
849 916 -789 0
789 -916 0
-849 879 -916 -917 0
-816 887 917 0
816 -917 0
-887 -917 0
-817 918 -789 0
918 919 -789 0
789 -918 0
817 -918 -919 0
887 919 -920 0
-887 -919 0
-919 920 0
-837 -850 920 0
837 -920 0
850 -920 0
-888 921 -789 0
920 921 -789 0
789 -921 0
888 -920 -921 0
-838 922 -789 0
850 922 -789 0
789 -922 0
838 -850 -922 0
878 923 -789 0
851 923 -789 0
789 -923 0
-878 -923 -851 0
851 924 -789 0
789 -924 0
-851 -924 0
917 925 -789 0
848 925 -789 0
899 925 -789 0
789 -925 0
-848 -899 -917 -925 0
917 926 -789 0
849 926 -789 0
879 926 -789 0
789 -926 0
-849 -879 -917 -926 0
919 927 -789 0
817 927 -789 0
789 -927 0
-817 -919 -927 0
920 928 -789 0
888 928 -789 0
789 -928 0
-888 -920 -928 0
850 929 -789 0
838 929 -789 0
789 -929 0
-838 -850 -929 0
-878 930 -789 0
851 930 -789 0
789 -930 0
878 -930 -851 0
1 788 0
-1 -788 0
2 788 0
-2 -788 0
3 909 0
-3 -909 0
97 -915 0
-97 915 0
98 -916 0
-98 916 0
99 -918 0
-99 918 0
100 -921 0
-100 921 0
104 -922 0
-104 922 0
126 -923 0
-126 923 0
298 -924 0
-298 924 0
489 -925 0
-489 925 0
490 -926 0
-490 926 0
491 -927 0
-491 927 0
492 -928 0
-492 928 0
496 -929 0
-496 929 0
518 -930 0
-518 930 0
690 -924 0
-690 924 0
-97 -489 2651 0
97 -2651 0
489 -2651 0
97 -1523 0
-97 1523 0
-98 -490 2652 0
98 -2652 0
490 -2652 0
98 -1731 0
-98 1731 0
-99 -491 2653 0
99 -2653 0
491 -2653 0
99 -1528 0
-99 1528 0
-100 -492 2654 0
100 -2654 0
492 -2654 0
100 -1739 0
-100 1739 0
-104 -496 2658 0
104 -2658 0
496 -2658 0
104 -1658 0
-104 1658 0
-126 -518 2680 0
126 -2680 0
518 -2680 0
126 -1508 0
-126 1508 0
-298 -690 2852 0
298 -2852 0
690 -2852 0
298 -1069 0
-298 1069 0
-1 0
-2 0
3 0
4 0
5 0
6 0
7 0
8 0
9 0
10 0
11 0
12 0
13 0
14 0
15 0
16 0
17 0
18 0
19 0
20 0
21 0
22 0
23 0
24 0
25 0
26 0
27 0
28 0
29 0
30 0
31 0
32 0
33 0
34 0
35 0
36 0
37 0
38 0
39 0
40 0
41 0
42 0
43 0
44 0
45 0
46 0
47 0
48 0
49 0
50 0
51 0
52 0
53 0
54 0
55 0
56 0
57 0
58 0
59 0
60 0
61 0
62 0
63 0
64 0
65 0
66 0
67 0
68 0
69 0
70 0
71 0
72 0
73 0
74 0
75 0
76 0
77 0
78 0
79 0
80 0
81 0
82 0
83 0
84 0
85 0
86 0
87 0
88 0
89 0
90 0
91 0
92 0
93 0
94 0
95 0
96 0
101 0
102 0
103 0
105 0
106 0
107 0
108 0
109 0
110 0
111 0
112 0
113 0
114 0
115 0
116 0
117 0
118 0
119 0
120 0
121 0
122 0
123 0
124 0
125 0
127 0
128 0
129 0
130 0
131 0
132 0
133 0
134 0
135 0
136 0
137 0
138 0
139 0
140 0
141 0
142 0
143 0
144 0
145 0
146 0
147 0
148 0
149 0
150 0
151 0
152 0
153 0
154 0
155 0
156 0
157 0
158 0
159 0
160 0
161 0
162 0
163 0
164 0
165 0
166 0
167 0
168 0
169 0
170 0
171 0
172 0
173 0
174 0
175 0
176 0
177 0
178 0
179 0
180 0
181 0
182 0
183 0
184 0
185 0
186 0
187 0
188 0
189 0
190 0
191 0
192 0
193 0
194 0
195 0
196 0
197 0
198 0
199 0
200 0
201 0
202 0
203 0
204 0
205 0
206 0
207 0
208 0
209 0
210 0
211 0
212 0
213 0
214 0
215 0
216 0
217 0
218 0
219 0
220 0
221 0
222 0
223 0
224 0
225 0
226 0
227 0
228 0
229 0
230 0
231 0
232 0
233 0
234 0
235 0
236 0
237 0
238 0
239 0
240 0
241 0
242 0
243 0
-244 0
245 0
246 0
247 0
248 0
249 0
250 0
251 0
252 0
253 0
254 0
255 0
256 0
257 0
258 0
259 0
260 0
261 0
262 0
263 0
264 0
265 0
266 0
267 0
268 0
269 0
270 0
271 0
272 0
273 0
274 0
275 0
276 0
277 0
278 0
279 0
280 0
281 0
282 0
283 0
284 0
285 0
286 0
287 0
288 0
289 0
290 0
291 0
292 0
293 0
294 0
295 0
296 0
297 0
-298 0
299 0
300 0
301 0
302 0
303 0
304 0
305 0
306 0
-307 0
308 0
309 0
310 0
311 0
312 0
313 0
314 0
315 0
316 0
317 0
318 0
319 0
320 0
321 0
322 0
323 0
324 0
325 0
326 0
327 0
328 0
329 0
330 0
331 0
332 0
333 0
334 0
-335 0
336 0
337 0
338 0
339 0
340 0
341 0
342 0
343 0
344 0
345 0
346 0
347 0
348 0
349 0
350 0
351 0
352 0
353 0
354 0
355 0
356 0
357 0
358 0
359 0
360 0
361 0
362 0
363 0
364 0
365 0
366 0
367 0
368 0
369 0
370 0
371 0
372 0
373 0
374 0
375 0
376 0
377 0
378 0
379 0
380 0
381 0
382 0
383 0
384 0
385 0
386 0
387 0
388 0
389 0
390 0
391 0
392 0
393 0
394 0
395 0
-396 0
-397 0
-398 0
-399 0
-400 0
-401 0
-402 0
-403 0
-404 0
-405 0
-406 0
-407 0
-408 0
-409 0
-410 0
-411 0
-412 0
-413 0
-414 0
-415 0
-416 0
-417 0
-418 0
-419 0
-420 0
-421 0
-422 0
-423 0
-424 0
-425 0
-426 0
-427 0
-428 0
-429 0
-430 0
-431 0
-432 0
-433 0
-434 0
-435 0
-436 0
-437 0
-438 0
-439 0
-440 0
-441 0
-442 0
-443 0
-444 0
-445 0
-446 0
-447 0
-448 0
-449 0
-450 0
-451 0
-452 0
-453 0
-454 0
-455 0
-456 0
-457 0
-458 0
-459 0
-460 0
-461 0
-462 0
-463 0
-464 0
-465 0
-466 0
-467 0
-468 0
-469 0
-470 0
-471 0
-472 0
-473 0
-474 0
-475 0
-476 0
-477 0
-478 0
-479 0
-480 0
-481 0
-482 0
-483 0
-484 0
-485 0
-486 0
-487 0
-488 0
-493 0
-494 0
-495 0
-497 0
-498 0
-499 0
-500 0
-501 0
-502 0
-503 0
-504 0
-505 0
-506 0
-507 0
-508 0
-509 0
-510 0
-511 0
-512 0
-513 0
-514 0
-515 0
-516 0
-517 0
-519 0
-520 0
-521 0
-522 0
-523 0
-524 0
-525 0
-526 0
-527 0
-528 0
-529 0
-530 0
-531 0
-532 0
-533 0
-534 0
-535 0
-536 0
-537 0
-538 0
-539 0
-540 0
-541 0
-542 0
-543 0
-544 0
-545 0
-546 0
-547 0
-548 0
-549 0
-550 0
-551 0
-552 0
-553 0
-554 0
-555 0
-556 0
-557 0
-558 0
-559 0
-560 0
-561 0
-562 0
-563 0
-564 0
-565 0
-566 0
-567 0
-568 0
-569 0
-570 0
-571 0
-572 0
-573 0
-574 0
-575 0
-576 0
-577 0
-578 0
-579 0
-580 0
-581 0
-582 0
-583 0
-584 0
-585 0
-586 0
-587 0
-588 0
-589 0
-590 0
-591 0
-592 0
-593 0
-594 0
-595 0
-596 0
-597 0
-598 0
-599 0
-600 0
-601 0
-602 0
-603 0
-604 0
-605 0
-606 0
-607 0
-608 0
-609 0
-610 0
-611 0
-612 0
-613 0
-614 0
-615 0
-616 0
-617 0
-618 0
-619 0
-620 0
-621 0
-622 0
-623 0
-624 0
-625 0
-626 0
-627 0
-628 0
-629 0
-630 0
-631 0
-632 0
-633 0
-634 0
-635 0
636 0
-637 0
-638 0
-639 0
-640 0
-641 0
-642 0
-643 0
-644 0
-645 0
-646 0
-647 0
-648 0
-649 0
-650 0
-651 0
-652 0
-653 0
-654 0
-655 0
-656 0
-657 0
-658 0
-659 0
-660 0
-661 0
-662 0
-663 0
-664 0
-665 0
-666 0
-667 0
-668 0
-669 0
-670 0
-671 0
-672 0
-673 0
-674 0
-675 0
-676 0
-677 0
-678 0
-679 0
-680 0
-681 0
-682 0
-683 0
-684 0
-685 0
-686 0
-687 0
-688 0
-689 0
-690 0
-691 0
-692 0
-693 0
-694 0
-695 0
-696 0
-697 0
-698 0
699 0
-700 0
-701 0
-702 0
-703 0
-704 0
-705 0
-706 0
-707 0
-708 0
-709 0
-710 0
-711 0
-712 0
-713 0
-714 0
-715 0
-716 0
-717 0
-718 0
-719 0
-720 0
-721 0
-722 0
-723 0
-724 0
-725 0
-726 0
727 0
-728 0
-729 0
-730 0
-731 0
-732 0
-733 0
-734 0
-735 0
-736 0
-737 0
-738 0
-739 0
-740 0
-741 0
-742 0
-743 0
-744 0
-745 0
-746 0
-747 0
-748 0
-749 0
-750 0
-751 0
-752 0
-753 0
-754 0
-755 0
-756 0
-757 0
-758 0
-759 0
-760 0
-761 0
-762 0
-763 0
-764 0
-765 0
-766 0
-767 0
-768 0
-769 0
-770 0
-771 0
-772 0
-773 0
-774 0
-775 0
-776 0
-777 0
-778 0
-779 0
-780 0
-781 0
-782 0
-783 0
-784 0
-785 0
-786 0
-787 0
788 0
789 0
790 0
-791 0
795 0
-796 0
-800 0
804 0
807 0
-808 0
811 0
812 0
814 0
851 0
-860 0
868 0
876 0
-909 0
910 0
911 0
912 0
913 0
914 0
-924 0
941 0
986 0
1006 0
1025 0
1026 0
1027 0
1028 0
1029 0
1030 0
1031 0
1032 0
1033 0
1034 0
1035 0
1036 0
1037 0
1038 0
1039 0
1040 0
-1041 0
1042 0
1043 0
1044 0
1045 0
1046 0
1047 0
1048 0
1049 0
1050 0
1051 0
1052 0
1053 0
1054 0
1055 0
1056 0
1057 0
1058 0
1059 0
1060 0
1061 0
1062 0
1063 0
1064 0
1065 0
1066 0
1067 0
1068 0
-1069 0
1070 0
1071 0
1072 0
1073 0
1074 0
1075 0
1076 0
1077 0
1078 0
1079 0
1080 0
1081 0
1082 0
1083 0
1084 0
1085 0
1086 0
1087 0
1088 0
1089 0
1090 0
1091 0
1092 0
1093 0
1094 0
1095 0
1096 0
1097 0
1098 0
1099 0
1100 0
1101 0
1102 0
1103 0
1104 0
1105 0
1106 0
1107 0
1108 0
1109 0
1110 0
1111 0
1112 0
1113 0
1114 0
1115 0
1116 0
1117 0
1118 0
1119 0
1120 0
1121 0
1122 0
1123 0
1124 0
1125 0
1126 0
1127 0
1128 0
1129 0
1130 0
1131 0
1132 0
1133 0
1134 0
1135 0
1136 0
1137 0
1138 0
1139 0
1140 0
1141 0
1142 0
1143 0
1144 0
1145 0
1146 0
1147 0
1148 0
1149 0
1150 0
1151 0
1152 0
1153 0
1154 0
1155 0
1156 0
1157 0
1158 0
1159 0
1160 0
1161 0
1162 0
1163 0
1330 0
1359 0
1372 0
1373 0
1374 0
1375 0
1376 0
1377 0
1378 0
1379 0
1380 0
1381 0
1382 0
1383 0
1384 0
1385 0
1386 0
1387 0
1388 0
1389 0
1390 0
1391 0
1392 0
1393 0
1394 0
1395 0
1396 0
1397 0
1398 0
1399 0
1400 0
1401 0
1402 0
1403 0
1404 0
1405 0
1406 0
1407 0
1408 0
1409 0
1410 0
1411 0
1412 0
1413 0
1414 0
1415 0
1416 0
1417 0
1418 0
1419 0
1420 0
1421 0
1422 0
1423 0
1424 0
1425 0
1426 0
1427 0
1428 0
1429 0
1430 0
1431 0
1432 0
1433 0
1434 0
1435 0
1436 0
1437 0
1438 0
1439 0
1440 0
1441 0
1442 0
1443 0
1444 0
1445 0
1446 0
1447 0
1448 0
1449 0
1450 0
1451 0
1452 0
1453 0
1454 0
1455 0
1456 0
1457 0
1458 0
1459 0
1460 0
1461 0
1462 0
1463 0
1464 0
1465 0
1466 0
1467 0
1468 0
1469 0
1470 0
1471 0
1472 0
1473 0
1474 0
1475 0
1476 0
1477 0
1478 0
1479 0
1480 0
1481 0
1482 0
1483 0
1484 0
1485 0
1486 0
1487 0
1488 0
1489 0
1490 0
1491 0
1492 0
1493 0
1494 0
1495 0
1496 0
1497 0
1498 0
1499 0
1500 0
1501 0
1502 0
1503 0
1504 0
1505 0
1506 0
1507 0
1509 0
1510 0
1511 0
1512 0
1513 0
1514 0
1515 0
1516 0
1517 0
1518 0
1519 0
1520 0
1521 0
1522 0
1524 0
1525 0
1526 0
1527 0
1529 0
1530 0
1531 0
1532 0
1533 0
1551 0
1580 0
-1653 0
1654 0
1655 0
1656 0
1657 0
1659 0
1660 0
1661 0
1662 0
1663 0
1664 0
1665 0
1666 0
1667 0
1668 0
1669 0
1670 0
1671 0
1672 0
1673 0
1674 0
1675 0
1676 0
1677 0
1678 0
1679 0
1680 0
1681 0
1682 0
1683 0
1684 0
1685 0
1686 0
1687 0
1688 0
1689 0
1690 0
1691 0
1692 0
1693 0
1694 0
1695 0
1696 0
1697 0
1698 0
1699 0
1700 0
1701 0
1702 0
1703 0
1704 0
1705 0
1706 0
1707 0
1708 0
1709 0
1710 0
1711 0
1712 0
1713 0
1714 0
1715 0
-1716 0
1717 0
1718 0
1719 0
1720 0
1721 0
1722 0
1723 0
1724 0
1725 0
1726 0
1727 0
1728 0
1729 0
1730 0
1732 0
1733 0
1734 0
1735 0
1736 0
1737 0
1738 0
1740 0
1741 0
1742 0
1743 0
2557 0
-2558 0
-2559 0
-2560 0
-2561 0
-2562 0
-2563 0
-2564 0
-2565 0
-2566 0
-2567 0
-2568 0
-2569 0
-2570 0
-2571 0
-2572 0
-2573 0
-2574 0
-2575 0
-2576 0
-2577 0
-2578 0
-2579 0
-2580 0
-2581 0
-2582 0
-2583 0
-2584 0
-2585 0
-2586 0
-2587 0
-2588 0
-2589 0
-2590 0
-2591 0
-2592 0
-2593 0
-2594 0
-2595 0
-2596 0
-2597 0
-2598 0
-2599 0
-2600 0
-2601 0
-2602 0
-2603 0
-2604 0
-2605 0
-2606 0
-2607 0
-2608 0
-2609 0
-2610 0
-2611 0
-2612 0
-2613 0
-2614 0
-2615 0
-2616 0
-2617 0
-2618 0
-2619 0
-2620 0
-2621 0
-2622 0
-2623 0
-2624 0
-2625 0
-2626 0
-2627 0
-2628 0
-2629 0
-2630 0
-2631 0
-2632 0
-2633 0
-2634 0
-2635 0
-2636 0
-2637 0
-2638 0
-2639 0
-2640 0
-2641 0
-2642 0
-2643 0
-2644 0
-2645 0
-2646 0
-2647 0
-2648 0
-2649 0
-2650 0
-2655 0
-2656 0
-2657 0
-2659 0
-2660 0
-2661 0
-2662 0
-2663 0
-2664 0
-2665 0
-2666 0
-2667 0
-2668 0
-2669 0
-2670 0
-2671 0
-2672 0
-2673 0
-2674 0
-2675 0
-2676 0
-2677 0
-2678 0
-2679 0
-2681 0
-2682 0
-2683 0
-2684 0
-2685 0
-2686 0
-2687 0
-2688 0
-2689 0
-2690 0
-2691 0
-2692 0
-2693 0
-2694 0
-2695 0
-2696 0
-2697 0
-2698 0
-2699 0
-2700 0
-2701 0
-2702 0
-2703 0
-2704 0
-2705 0
-2706 0
-2707 0
-2708 0
-2709 0
-2710 0
-2711 0
-2712 0
-2713 0
-2714 0
-2715 0
-2716 0
-2717 0
-2718 0
-2719 0
-2720 0
-2721 0
-2722 0
-2723 0
-2724 0
-2725 0
-2726 0
-2727 0
-2728 0
-2729 0
-2730 0
-2731 0
-2732 0
-2733 0
-2734 0
-2735 0
-2736 0
-2737 0
-2738 0
-2739 0
-2740 0
-2741 0
-2742 0
-2743 0
-2744 0
-2745 0
-2746 0
-2747 0
-2748 0
-2749 0
-2750 0
-2751 0
-2752 0
-2753 0
-2754 0
-2755 0
-2756 0
-2757 0
-2758 0
-2759 0
-2760 0
-2761 0
-2762 0
-2763 0
-2764 0
-2765 0
-2766 0
-2767 0
-2768 0
-2769 0
-2770 0
-2771 0
-2772 0
-2773 0
-2774 0
-2775 0
-2776 0
-2777 0
-2778 0
-2779 0
-2780 0
-2781 0
-2782 0
-2783 0
-2784 0
-2785 0
-2786 0
-2787 0
-2788 0
-2789 0
-2790 0
-2791 0
-2792 0
-2793 0
-2794 0
-2795 0
-2796 0
-2797 0
-2798 0
-2799 0
-2800 0
-2801 0
-2802 0
-2803 0
-2804 0
-2805 0
-2806 0
-2807 0
-2808 0
-2809 0
-2810 0
-2811 0
-2812 0
-2813 0
-2814 0
-2815 0
-2816 0
-2817 0
-2818 0
-2819 0
-2820 0
-2821 0
-2822 0
-2823 0
-2824 0
-2825 0
-2826 0
-2827 0
-2828 0
-2829 0
-2830 0
-2831 0
-2832 0
-2833 0
-2834 0
-2835 0
-2836 0
-2837 0
-2838 0
-2839 0
-2840 0
-2841 0
-2842 0
-2843 0
-2844 0
-2845 0
-2846 0
-2847 0
-2848 0
-2849 0
-2850 0
-2851 0
-2852 0
-2853 0
-2854 0
-2855 0
-2856 0
-2857 0
-2858 0
-2859 0
-2860 0
-2861 0
-2862 0
-2863 0
-2864 0
-2865 0
-2866 0
-2867 0
-2868 0
-2869 0
-2870 0
-2871 0
-2872 0
-2873 0
-2874 0
-2875 0
-2876 0
-2877 0
-2878 0
-2879 0
-2880 0
-2881 0
-2882 0
-2883 0
-2884 0
-2885 0
-2886 0
-2887 0
-2888 0
-2889 0
-2890 0
-2891 0
-2892 0
-2893 0
-2894 0
-2895 0
-2896 0
-2897 0
-2898 0
-2899 0
-2900 0
-2901 0
-2902 0
-2903 0
-2904 0
-2905 0
-2906 0
-2907 0
-2908 0
-2909 0
-2910 0
-2911 0
-2912 0
-2913 0
-2914 0
-2915 0
-2916 0
-2917 0
-2918 0
-2919 0
-2920 0
-2921 0
-2922 0
-2923 0
-2924 0
-2925 0
-2926 0
-2927 0
-2928 0
-2929 0
-2930 0
-2931 0
-2932 0
-2933 0
-2934 0
-2935 0
-2936 0
-2937 0
-2938 0
-2939 0
-2940 0
-2941 0
-2942 0
-2943 0
-2944 0
-2945 0
-2946 0
-2947 0
-2948 0
-2949 0
-2350 0
-2351 0
-2352 0
-2353 0
-2354 0
-2355 0
-2356 0
-2357 0
-2358 0
-2359 0
-2360 0
-2361 0
-2362 0
-2363 0
-2364 0
-2365 0
-2366 0
-2367 0
-2368 0
-2369 0
-2370 0
-2371 0
-2372 0
-2373 0
-2374 0
-2375 0
-2376 0
-2377 0
-2378 0
-2379 0
-2380 0
-2381 0
-2382 0
-2383 0
-2384 0
-2385 0
-2386 0
-2387 0
-2388 0
-2389 0
-2390 0
-2391 0
-2392 0
-2393 0
-2394 0
-2395 0
-2396 0
-2397 0
-2398 0
-2399 0
-2400 0
-2401 0
-2402 0
-2403 0
-2404 0
-2405 0
-2406 0
-2407 0
-2408 0
-2409 0
-2410 0
-2411 0
-2412 0
-2413 0
-2414 0
-2415 0
-2416 0
-2417 0
-2418 0
-2419 0
-2420 0
-2421 0
-2422 0
-2423 0
-2424 0
-2425 0
-2426 0
-2427 0
-2428 0
-2429 0
-2430 0
-1744 0
-2431 0
-2126 0
-2127 0
-2432 0
-2078 0
-2433 0
-2079 0
-2434 0
-2080 0
-2081 0
-2082 0
-2083 0
-2084 0
-2085 0
-2086 0
-2087 0
-2088 0
-2089 0
-2090 0
-2091 0
-2092 0
-2093 0
-2094 0
-2435 0
-2436 0
-2095 0
-2096 0
-2437 0
-2438 0
-2097 0
-2098 0
-2099 0
-2100 0
-2101 0
-2439 0
-2102 0
-2103 0
-2104 0
-2105 0
-2106 0
-2107 0
-2440 0
-2108 0
-2109 0
-2441 0
-2110 0
-2111 0
-2112 0
-2442 0
-2347 0
-2443 0
-2113 0
-2114 0
-2115 0
-2116 0
-2117 0
-2118 0
-2119 0
-2444 0
-2120 0
-2121 0
-2122 0
-2445 0
-2446 0
-2123 0
-1815 0
-1816 0
-1817 0
-2447 0
-2448 0
-1818 0
-1819 0
-1820 0
-1821 0
-1822 0
-1823 0
-1824 0
-1825 0
-1826 0
-1827 0
-1828 0
-1829 0
-1830 0
-1831 0
-2449 0
-1832 0
-2450 0
-1833 0
-1834 0
-1835 0
-2451 0
-1836 0
-2452 0
-1837 0
-1745 0
-1746 0
-1747 0
-1748 0
-1749 0
-1750 0
-2453 0
-1751 0
-1813 0
-1752 0
-1753 0
-1754 0
-2454 0
-1755 0
-2455 0
-1756 0
-1757 0
-1758 0
-2456 0
-2457 0
-1759 0
-1760 0
-1761 0
-1762 0
-1763 0
-1764 0
-1765 0
-1766 0
-1767 0
-2458 0
-2459 0
-2010 0
-2011 0
-2012 0
-2013 0
-2014 0
-2460 0
-2015 0
-2016 0
-2017 0
-2018 0
-2019 0
-2020 0
-2021 0
-2022 0
-2023 0
-2461 0
-2024 0
-2025 0
-2026 0
-2462 0
-2027 0
-2463 0
-2028 0
-2029 0
-2464 0
-2030 0
-2031 0
-2465 0
-2032 0
-1977 0
-1814 0
-1978 0
-1979 0
-1980 0
-1981 0
-1982 0
-1983 0
-1984 0
-1985 0
-1986 0
-1987 0
-1988 0
-1989 0
-1990 0
-1991 0
-1992 0
-1993 0
-1994 0
-1995 0
-1996 0
-1997 0
-1998 0
-1999 0
-2000 0
-2001 0
-2002 0
-2003 0
-2004 0
-2005 0
-2006 0
-2007 0
-2008 0
-2009 0
-2033 0
-2034 0
-2035 0
-2036 0
-2037 0
-2038 0
-2039 0
-2040 0
-2041 0
-2042 0
-2043 0
-2044 0
-2045 0
-2046 0
-2047 0
-2048 0
-2049 0
-2050 0
-2051 0
-2052 0
-2053 0
-2054 0
-2055 0
-2056 0
-2057 0
-2058 0
-2059 0
-2060 0
-2061 0
-2062 0
-2063 0
-2064 0
-2065 0
-2066 0
-2067 0
-2068 0
-2069 0
-2070 0
-2071 0
-2124 0
-2072 0
-2073 0
-2074 0
-2075 0
-2076 0
-2077 0
-1768 0
-1769 0
-1770 0
-1771 0
-1772 0
-1773 0
-1774 0
-1775 0
-1776 0
-1777 0
-1778 0
-1779 0
-1780 0
-1781 0
-1782 0
-1783 0
-1784 0
-1785 0
-1786 0
-1787 0
-1788 0
-1789 0
-1790 0
-1791 0
-1792 0
-1793 0
-1794 0
-1795 0
-1796 0
-1797 0
-1798 0
-1799 0
-1800 0
-2125 0
-1801 0
-1802 0
-1803 0
-1804 0
-1805 0
-1806 0
-1807 0
-1808 0
-1809 0
-1810 0
-1811 0
-1812 0
-2128 0
-2129 0
-2130 0
-2131 0
-2132 0
-2133 0
-2134 0
-2135 0
-2136 0
-2137 0
-2138 0
-2139 0
-2140 0
-2141 0
-2142 0
-2143 0
-2144 0
-2145 0
-2146 0
-2147 0
-2148 0
-2149 0
-2150 0
-2151 0
-2152 0
-2153 0
-2154 0
-2155 0
-2156 0
-2157 0
-2158 0
-2159 0
-2160 0
-2161 0
-2162 0
-2163 0
-2164 0
-2165 0
-2166 0
-2167 0
-2168 0
-2169 0
-2170 0
-2171 0
-2172 0
-2173 0
-2174 0
-2175 0
-2176 0
-2177 0
-2178 0
-2179 0
-2180 0
-2181 0
-2182 0
-2183 0
-2184 0
-2348 0
-2349 0

